job_count = 12 ;
duration = [|11, 1|13, 4|6, 8|7, 8|8, 4|17, 4|13, 7|18, 1|10, 1|2, 8|3, 8|11, 5|] ;
machine_count = 2 ;
cost = [|15, 26|14, 22|13, 22|12, 39|16, 21|11, 36|14, 26|16, 36|11, 35|18, 34|12, 24|18, 22|] ;
deadline = [30, 30, 30, 30, 30, 30, 30, 30, 30, 30, 30, 30] ;
release = [0, 0, 0, 0, 0, 0, 0, 0, 0, 0, 0, 0] ;
resource = [|3, 3|8, 8|4, 4|2, 2|1, 1|2, 2|6, 6|4, 4|3, 3|6, 6|2, 2|5, 5|] ;
capacities = [10, 10] ;
